db/data/296001725030008213901829524345355431984.z3.out
-------------------
2500.194929681
